70 2415
1 2 111
1 3 143
1 4 134
1 5 150
1 6 57
1 7 173
1 8 22
1 9 31
1 10 68
1 11 39
1 12 172
1 13 7
1 14 129
1 15 17
1 16 41
1 17 184
1 18 10
1 19 131
1 20 63
1 21 6
1 22 166
1 23 41
1 24 185
1 25 30
1 26 17
1 27 177
1 28 32
1 29 61
1 30 133
1 31 166
1 32 2
1 33 44
1 34 182
1 35 121
1 36 141
1 37 56
1 38 27
1 39 83
1 40 50
1 41 49
1 42 60
1 43 121
1 44 8
1 45 179
1 46 27
1 47 123
1 48 63
1 49 26
1 50 91
1 51 184
1 52 185
1 53 207
1 54 110
1 55 202
1 56 2
1 57 49
1 58 177
1 59 72
1 60 192
1 61 204
1 62 20
1 63 117
1 64 15
1 65 36
1 66 27
1 67 163
1 68 179
1 69 83
1 70 141
2 3 135
2 4 104
2 5 21
2 6 12
2 7 145
2 8 25
2 9 107
2 10 89
2 11 119
2 12 131
2 13 74
2 14 61
2 15 99
2 16 59
2 17 33
2 18 47
2 19 141
2 20 6
2 21 45
2 22 110
2 23 65
2 24 174
2 25 43
2 26 35
2 27 62
2 28 14
2 29 24
2 30 195
2 31 10
2 32 146
2 33 184
2 34 178
2 35 129
2 36 127
2 37 132
2 38 40
2 39 194
2 40 52
2 41 106
2 42 47
2 43 195
2 44 66
2 45 186
2 46 206
2 47 23
2 48 21
2 49 167
2 50 61
2 51 163
2 52 115
2 53 89
2 54 142
2 55 152
2 56 55
2 57 149
2 58 184
2 59 198
2 60 186
2 61 66
2 62 162
2 63 113
2 64 66
2 65 79
2 66 148
2 67 25
2 68 107
2 69 5
2 70 105
3 4 194
3 5 157
3 6 123
3 7 160
3 8 204
3 9 10
3 10 193
3 11 120
3 12 1
3 13 21
3 14 53
3 15 198
3 16 150
3 17 55
3 18 59
3 19 90
3 20 18
3 21 134
3 22 200
3 23 170
3 24 43
3 25 96
3 26 47
3 27 143
3 28 119
3 29 146
3 30 92
3 31 135
3 32 26
3 33 32
3 34 186
3 35 39
3 36 193
3 37 88
3 38 1
3 39 187
3 40 14
3 41 67
3 42 57
3 43 103
3 44 127
3 45 83
3 46 73
3 47 66
3 48 126
3 49 124
3 50 46
3 51 149
3 52 117
3 53 2
3 54 87
3 55 85
3 56 123
3 57 104
3 58 18
3 59 114
3 60 56
3 61 8
3 62 178
3 63 25
3 64 93
3 65 22
3 66 205
3 67 131
3 68 76
3 69 115
3 70 104
4 5 75
4 6 204
4 7 152
4 8 79
4 9 175
4 10 144
4 11 188
4 12 117
4 13 180
4 14 123
4 15 4
4 16 175
4 17 34
4 18 87
4 19 184
4 20 24
4 21 51
4 22 74
4 23 77
4 24 31
4 25 26
4 26 98
4 27 178
4 28 19
4 29 97
4 30 105
4 31 63
4 32 164
4 33 97
4 34 68
4 35 93
4 36 174
4 37 168
4 38 69
4 39 27
4 40 198
4 41 9
4 42 55
4 43 26
4 44 15
4 45 163
4 46 162
4 47 168
4 48 119
4 49 140
4 50 77
4 51 179
4 52 50
4 53 149
4 54 159
4 55 8
4 56 43
4 57 124
4 58 148
4 59 10
4 60 26
4 61 166
4 62 81
4 63 128
4 64 0
4 65 157
4 66 147
4 67 196
4 68 128
4 69 208
4 70 88
5 6 131
5 7 49
5 8 48
5 9 45
5 10 47
5 11 198
5 12 23
5 13 1
5 14 182
5 15 47
5 16 170
5 17 104
5 18 46
5 19 137
5 20 74
5 21 158
5 22 155
5 23 78
5 24 116
5 25 39
5 26 84
5 27 96
5 28 102
5 29 165
5 30 120
5 31 199
5 32 38
5 33 93
5 34 197
5 35 155
5 36 72
5 37 162
5 38 156
5 39 100
5 40 120
5 41 153
5 42 118
5 43 33
5 44 73
5 45 15
5 46 149
5 47 69
5 48 37
5 49 199
5 50 197
5 51 73
5 52 200
5 53 116
5 54 118
5 55 65
5 56 172
5 57 128
5 58 137
5 59 186
5 60 6
5 61 171
5 62 114
5 63 6
5 64 22
5 65 174
5 66 84
5 67 138
5 68 31
5 69 92
5 70 170
6 7 125
6 8 67
6 9 135
6 10 61
6 11 12
6 12 118
6 13 114
6 14 193
6 15 10
6 16 129
6 17 98
6 18 157
6 19 206
6 20 24
6 21 7
6 22 85
6 23 185
6 24 103
6 25 90
6 26 2
6 27 139
6 28 178
6 29 19
6 30 93
6 31 161
6 32 37
6 33 182
6 34 32
6 35 110
6 36 162
6 37 119
6 38 184
6 39 101
6 40 17
6 41 11
6 42 207
6 43 119
6 44 65
6 45 57
6 46 103
6 47 22
6 48 181
6 49 34
6 50 176
6 51 108
6 52 45
6 53 156
6 54 182
6 55 62
6 56 85
6 57 155
6 58 60
6 59 4
6 60 150
6 61 76
6 62 141
6 63 86
6 64 0
6 65 3
6 66 4
6 67 100
6 68 111
6 69 112
6 70 200
7 8 116
7 9 197
7 10 3
7 11 152
7 12 133
7 13 146
7 14 127
7 15 64
7 16 187
7 17 11
7 18 79
7 19 142
7 20 159
7 21 49
7 22 199
7 23 156
7 24 183
7 25 167
7 26 28
7 27 194
7 28 203
7 29 152
7 30 79
7 31 176
7 32 193
7 33 124
7 34 65
7 35 41
7 36 197
7 37 7
7 38 72
7 39 64
7 40 61
7 41 85
7 42 138
7 43 162
7 44 73
7 45 144
7 46 8
7 47 128
7 48 171
7 49 206
7 50 16
7 51 208
7 52 113
7 53 25
7 54 159
7 55 87
7 56 82
7 57 115
7 58 5
7 59 133
7 60 100
7 61 144
7 62 158
7 63 201
7 64 84
7 65 80
7 66 128
7 67 196
7 68 103
7 69 51
7 70 148
8 9 9
8 10 47
8 11 164
8 12 174
8 13 175
8 14 38
8 15 63
8 16 162
8 17 123
8 18 16
8 19 185
8 20 144
8 21 91
8 22 141
8 23 16
8 24 95
8 25 52
8 26 180
8 27 50
8 28 130
8 29 92
8 30 159
8 31 194
8 32 159
8 33 197
8 34 95
8 35 42
8 36 38
8 37 159
8 38 1
8 39 108
8 40 187
8 41 13
8 42 20
8 43 46
8 44 143
8 45 116
8 46 102
8 47 24
8 48 67
8 49 4
8 50 20
8 51 20
8 52 99
8 53 33
8 54 42
8 55 130
8 56 185
8 57 101
8 58 198
8 59 30
8 60 10
8 61 127
8 62 43
8 63 100
8 64 155
8 65 3
8 66 60
8 67 32
8 68 48
8 69 144
8 70 2
9 10 67
9 11 11
9 12 94
9 13 91
9 14 73
9 15 143
9 16 150
9 17 23
9 18 29
9 19 49
9 20 41
9 21 149
9 22 205
9 23 97
9 24 154
9 25 109
9 26 147
9 27 178
9 28 39
9 29 57
9 30 23
9 31 13
9 32 50
9 33 101
9 34 143
9 35 181
9 36 142
9 37 183
9 38 148
9 39 138
9 40 167
9 41 177
9 42 126
9 43 163
9 44 104
9 45 177
9 46 83
9 47 59
9 48 158
9 49 73
9 50 144
9 51 75
9 52 149
9 53 24
9 54 190
9 55 130
9 56 167
9 57 87
9 58 177
9 59 173
9 60 36
9 61 43
9 62 45
9 63 10
9 64 96
9 65 206
9 66 126
9 67 64
9 68 41
9 69 206
9 70 49
10 11 149
10 12 159
10 13 162
10 14 49
10 15 65
10 16 92
10 17 166
10 18 19
10 19 50
10 20 91
10 21 62
10 22 109
10 23 25
10 24 164
10 25 153
10 26 173
10 27 23
10 28 25
10 29 121
10 30 8
10 31 180
10 32 189
10 33 194
10 34 174
10 35 57
10 36 18
10 37 144
10 38 34
10 39 187
10 40 143
10 41 177
10 42 5
10 43 127
10 44 65
10 45 195
10 46 100
10 47 4
10 48 147
10 49 31
10 50 99
10 51 127
10 52 116
10 53 145
10 54 105
10 55 35
10 56 55
10 57 12
10 58 150
10 59 51
10 60 6
10 61 74
10 62 162
10 63 38
10 64 32
10 65 72
10 66 60
10 67 123
10 68 133
10 69 164
10 70 159
11 12 76
11 13 72
11 14 138
11 15 0
11 16 88
11 17 6
11 18 131
11 19 82
11 20 63
11 21 97
11 22 128
11 23 119
11 24 29
11 25 83
11 26 86
11 27 15
11 28 83
11 29 17
11 30 188
11 31 207
11 32 27
11 33 164
11 34 94
11 35 84
11 36 65
11 37 131
11 38 128
11 39 75
11 40 202
11 41 14
11 42 167
11 43 109
11 44 164
11 45 77
11 46 43
11 47 160
11 48 74
11 49 42
11 50 80
11 51 187
11 52 125
11 53 180
11 54 192
11 55 166
11 56 146
11 57 181
11 58 183
11 59 9
11 60 16
11 61 160
11 62 154
11 63 21
11 64 154
11 65 197
11 66 146
11 67 36
11 68 184
11 69 119
11 70 163
12 13 13
12 14 93
12 15 180
12 16 37
12 17 193
12 18 126
12 19 162
12 20 157
12 21 84
12 22 121
12 23 66
12 24 3
12 25 70
12 26 131
12 27 49
12 28 50
12 29 112
12 30 6
12 31 92
12 32 146
12 33 109
12 34 122
12 35 64
12 36 126
12 37 132
12 38 122
12 39 156
12 40 98
12 41 39
12 42 80
12 43 48
12 44 93
12 45 13
12 46 179
12 47 29
12 48 121
12 49 191
12 50 148
12 51 0
12 52 33
12 53 206
12 54 34
12 55 89
12 56 5
12 57 63
12 58 207
12 59 134
12 60 40
12 61 66
12 62 34
12 63 111
12 64 7
12 65 9
12 66 150
12 67 163
12 68 16
12 69 9
12 70 68
13 14 81
13 15 119
13 16 196
13 17 124
13 18 29
13 19 61
13 20 7
13 21 209
13 22 107
13 23 141
13 24 184
13 25 167
13 26 205
13 27 75
13 28 106
13 29 46
13 30 148
13 31 102
13 32 102
13 33 135
13 34 166
13 35 102
13 36 155
13 37 10
13 38 184
13 39 200
13 40 68
13 41 124
13 42 164
13 43 136
13 44 32
13 45 121
13 46 116
13 47 8
13 48 151
13 49 135
13 50 129
13 51 176
13 52 24
13 53 19
13 54 45
13 55 195
13 56 84
13 57 70
13 58 205
13 59 61
13 60 2
13 61 139
13 62 61
13 63 30
13 64 68
13 65 194
13 66 49
13 67 163
13 68 64
13 69 22
13 70 27
14 15 201
14 16 43
14 17 57
14 18 179
14 19 194
14 20 143
14 21 45
14 22 123
14 23 38
14 24 21
14 25 203
14 26 180
14 27 19
14 28 51
14 29 84
14 30 207
14 31 162
14 32 21
14 33 43
14 34 179
14 35 53
14 36 156
14 37 137
14 38 132
14 39 82
14 40 99
14 41 122
14 42 101
14 43 183
14 44 178
14 45 78
14 46 117
14 47 88
14 48 181
14 49 177
14 50 97
14 51 200
14 52 158
14 53 167
14 54 124
14 55 55
14 56 73
14 57 134
14 58 147
14 59 88
14 60 204
14 61 156
14 62 88
14 63 159
14 64 68
14 65 62
14 66 78
14 67 27
14 68 182
14 69 1
14 70 72
15 16 185
15 17 100
15 18 107
15 19 140
15 20 89
15 21 17
15 22 144
15 23 8
15 24 201
15 25 160
15 26 30
15 27 37
15 28 118
15 29 183
15 30 59
15 31 155
15 32 2
15 33 3
15 34 132
15 35 157
15 36 140
15 37 8
15 38 72
15 39 160
15 40 58
15 41 53
15 42 146
15 43 82
15 44 134
15 45 39
15 46 134
15 47 4
15 48 80
15 49 14
15 50 204
15 51 109
15 52 34
15 53 105
15 54 166
15 55 61
15 56 28
15 57 115
15 58 80
15 59 74
15 60 129
15 61 75
15 62 135
15 63 2
15 64 154
15 65 38
15 66 161
15 67 202
15 68 170
15 69 14
15 70 165
16 17 164
16 18 108
16 19 113
16 20 63
16 21 141
16 22 193
16 23 177
16 24 62
16 25 23
16 26 112
16 27 77
16 28 100
16 29 136
16 30 56
16 31 165
16 32 199
16 33 156
16 34 102
16 35 192
16 36 183
16 37 138
16 38 163
16 39 53
16 40 152
16 41 164
16 42 126
16 43 65
16 44 165
16 45 16
16 46 1
16 47 188
16 48 12
16 49 145
16 50 205
16 51 91
16 52 29
16 53 147
16 54 81
16 55 65
16 56 33
16 57 90
16 58 29
16 59 57
16 60 11
16 61 188
16 62 90
16 63 92
16 64 46
16 65 181
16 66 104
16 67 143
16 68 53
16 69 30
16 70 92
17 18 127
17 19 150
17 20 124
17 21 19
17 22 100
17 23 87
17 24 121
17 25 31
17 26 177
17 27 80
17 28 146
17 29 200
17 30 82
17 31 25
17 32 75
17 33 68
17 34 161
17 35 92
17 36 36
17 37 42
17 38 16
17 39 51
17 40 154
17 41 39
17 42 90
17 43 140
17 44 35
17 45 136
17 46 110
17 47 30
17 48 80
17 49 21
17 50 77
17 51 5
17 52 119
17 53 100
17 54 109
17 55 156
17 56 58
17 57 34
17 58 120
17 59 155
17 60 66
17 61 130
17 62 172
17 63 8
17 64 72
17 65 4
17 66 102
17 67 16
17 68 182
17 69 154
17 70 7
18 19 34
18 20 126
18 21 89
18 22 208
18 23 185
18 24 134
18 25 89
18 26 12
18 27 117
18 28 140
18 29 20
18 30 44
18 31 46
18 32 100
18 33 102
18 34 66
18 35 177
18 36 179
18 37 94
18 38 168
18 39 39
18 40 111
18 41 133
18 42 187
18 43 188
18 44 57
18 45 178
18 46 176
18 47 21
18 48 71
18 49 183
18 50 12
18 51 88
18 52 3
18 53 54
18 54 24
18 55 79
18 56 141
18 57 71
18 58 41
18 59 119
18 60 16
18 61 198
18 62 131
18 63 101
18 64 147
18 65 103
18 66 13
18 67 41
18 68 116
18 69 8
18 70 180
19 20 185
19 21 165
19 22 21
19 23 152
19 24 23
19 25 12
19 26 50
19 27 206
19 28 117
19 29 15
19 30 24
19 31 206
19 32 154
19 33 202
19 34 61
19 35 209
19 36 109
19 37 7
19 38 123
19 39 57
19 40 81
19 41 209
19 42 135
19 43 105
19 44 62
19 45 68
19 46 159
19 47 181
19 48 34
19 49 26
19 50 119
19 51 24
19 52 190
19 53 42
19 54 188
19 55 191
19 56 123
19 57 56
19 58 65
19 59 103
19 60 151
19 61 118
19 62 19
19 63 34
19 64 106
19 65 71
19 66 36
19 67 16
19 68 84
19 69 53
19 70 161
20 21 187
20 22 176
20 23 177
20 24 179
20 25 36
20 26 10
20 27 57
20 28 125
20 29 19
20 30 93
20 31 73
20 32 160
20 33 197
20 34 106
20 35 6
20 36 177
20 37 36
20 38 140
20 39 122
20 40 74
20 41 63
20 42 33
20 43 154
20 44 53
20 45 1
20 46 98
20 47 190
20 48 187
20 49 7
20 50 140
20 51 105
20 52 162
20 53 147
20 54 172
20 55 70
20 56 68
20 57 16
20 58 208
20 59 10
20 60 118
20 61 36
20 62 77
20 63 174
20 64 92
20 65 202
20 66 6
20 67 190
20 68 47
20 69 69
20 70 53
21 22 16
21 23 190
21 24 203
21 25 88
21 26 147
21 27 14
21 28 196
21 29 84
21 30 111
21 31 148
21 32 65
21 33 152
21 34 42
21 35 111
21 36 16
21 37 119
21 38 175
21 39 167
21 40 197
21 41 37
21 42 33
21 43 131
21 44 108
21 45 145
21 46 179
21 47 200
21 48 53
21 49 82
21 50 61
21 51 118
21 52 56
21 53 106
21 54 150
21 55 143
21 56 153
21 57 92
21 58 118
21 59 143
21 60 88
21 61 36
21 62 132
21 63 118
21 64 14
21 65 134
21 66 142
21 67 180
21 68 70
21 69 110
21 70 103
22 23 196
22 24 63
22 25 28
22 26 163
22 27 76
22 28 196
22 29 88
22 30 208
22 31 110
22 32 15
22 33 74
22 34 2
22 35 129
22 36 208
22 37 151
22 38 26
22 39 174
22 40 4
22 41 156
22 42 71
22 43 108
22 44 123
22 45 168
22 46 39
22 47 156
22 48 99
22 49 89
22 50 126
22 51 105
22 52 123
22 53 20
22 54 166
22 55 183
22 56 16
22 57 153
22 58 67
22 59 62
22 60 58
22 61 56
22 62 101
22 63 9
22 64 47
22 65 182
22 66 18
22 67 184
22 68 18
22 69 19
22 70 125
23 24 182
23 25 209
23 26 63
23 27 96
23 28 199
23 29 147
23 30 115
23 31 59
23 32 159
23 33 90
23 34 27
23 35 67
23 36 79
23 37 182
23 38 98
23 39 71
23 40 68
23 41 27
23 42 32
23 43 162
23 44 193
23 45 105
23 46 30
23 47 46
23 48 195
23 49 135
23 50 106
23 51 109
23 52 102
23 53 46
23 54 69
23 55 21
23 56 107
23 57 190
23 58 9
23 59 145
23 60 23
23 61 1
23 62 106
23 63 84
23 64 67
23 65 92
23 66 173
23 67 26
23 68 76
23 69 53
23 70 49
24 25 26
24 26 171
24 27 131
24 28 90
24 29 129
24 30 46
24 31 41
24 32 103
24 33 60
24 34 39
24 35 146
24 36 20
24 37 79
24 38 20
24 39 191
24 40 178
24 41 201
24 42 73
24 43 69
24 44 140
24 45 56
24 46 72
24 47 69
24 48 95
24 49 109
24 50 204
24 51 123
24 52 170
24 53 194
24 54 63
24 55 130
24 56 97
24 57 144
24 58 25
24 59 2
24 60 16
24 61 157
24 62 181
24 63 50
24 64 8
24 65 132
24 66 97
24 67 103
24 68 194
24 69 161
24 70 96
25 26 126
25 27 145
25 28 188
25 29 41
25 30 29
25 31 201
25 32 191
25 33 172
25 34 164
25 35 71
25 36 9
25 37 45
25 38 24
25 39 137
25 40 23
25 41 154
25 42 90
25 43 77
25 44 141
25 45 137
25 46 148
25 47 3
25 48 109
25 49 126
25 50 138
25 51 121
25 52 15
25 53 81
25 54 10
25 55 77
25 56 177
25 57 76
25 58 3
25 59 44
25 60 36
25 61 49
25 62 170
25 63 184
25 64 2
25 65 127
25 66 79
25 67 209
25 68 102
25 69 87
25 70 187
26 27 103
26 28 192
26 29 33
26 30 4
26 31 206
26 32 167
26 33 89
26 34 142
26 35 48
26 36 156
26 37 37
26 38 200
26 39 160
26 40 192
26 41 55
26 42 133
26 43 46
26 44 57
26 45 100
26 46 162
26 47 168
26 48 50
26 49 117
26 50 127
26 51 64
26 52 182
26 53 22
26 54 139
26 55 192
26 56 135
26 57 157
26 58 33
26 59 143
26 60 208
26 61 14
26 62 189
26 63 195
26 64 38
26 65 170
26 66 116
26 67 5
26 68 209
26 69 153
26 70 88
27 28 169
27 29 71
27 30 149
27 31 205
27 32 195
27 33 190
27 34 126
27 35 26
27 36 14
27 37 20
27 38 123
27 39 105
27 40 72
27 41 45
27 42 48
27 43 1
27 44 111
27 45 87
27 46 23
27 47 147
27 48 56
27 49 16
27 50 181
27 51 12
27 52 32
27 53 181
27 54 73
27 55 90
27 56 9
27 57 197
27 58 190
27 59 184
27 60 19
27 61 4
27 62 82
27 63 154
27 64 10
27 65 76
27 66 206
27 67 118
27 68 94
27 69 159
27 70 206
28 29 116
28 30 99
28 31 49
28 32 2
28 33 133
28 34 190
28 35 114
28 36 15
28 37 39
28 38 81
28 39 2
28 40 40
28 41 8
28 42 47
28 43 177
28 44 60
28 45 208
28 46 37
28 47 209
28 48 30
28 49 187
28 50 135
28 51 134
28 52 193
28 53 93
28 54 174
28 55 88
28 56 126
28 57 8
28 58 14
28 59 123
28 60 95
28 61 67
28 62 64
28 63 87
28 64 1
28 65 13
28 66 60
28 67 17
28 68 77
28 69 91
28 70 189
29 30 139
29 31 149
29 32 128
29 33 61
29 34 35
29 35 43
29 36 197
29 37 83
29 38 166
29 39 42
29 40 63
29 41 56
29 42 8
29 43 76
29 44 23
29 45 93
29 46 46
29 47 17
29 48 199
29 49 5
29 50 80
29 51 180
29 52 147
29 53 78
29 54 174
29 55 14
29 56 107
29 57 178
29 58 172
29 59 183
29 60 115
29 61 166
29 62 46
29 63 194
29 64 142
29 65 158
29 66 173
29 67 180
29 68 142
29 69 172
29 70 186
30 31 96
30 32 12
30 33 179
30 34 147
30 35 83
30 36 126
30 37 189
30 38 125
30 39 120
30 40 28
30 41 65
30 42 11
30 43 11
30 44 48
30 45 112
30 46 23
30 47 26
30 48 99
30 49 97
30 50 153
30 51 163
30 52 172
30 53 136
30 54 118
30 55 208
30 56 50
30 57 124
30 58 19
30 59 137
30 60 53
30 61 190
30 62 185
30 63 150
30 64 122
30 65 58
30 66 169
30 67 124
30 68 154
30 69 195
30 70 159
31 32 171
31 33 73
31 34 5
31 35 45
31 36 111
31 37 78
31 38 59
31 39 29
31 40 92
31 41 14
31 42 89
31 43 173
31 44 207
31 45 55
31 46 54
31 47 146
31 48 173
31 49 52
31 50 207
31 51 161
31 52 129
31 53 140
31 54 157
31 55 128
31 56 134
31 57 75
31 58 167
31 59 106
31 60 189
31 61 142
31 62 188
31 63 194
31 64 129
31 65 197
31 66 2
31 67 91
31 68 31
31 69 93
31 70 209
32 33 70
32 34 148
32 35 19
32 36 145
32 37 116
32 38 40
32 39 40
32 40 152
32 41 29
32 42 69
32 43 182
32 44 178
32 45 60
32 46 130
32 47 115
32 48 66
32 49 167
32 50 154
32 51 158
32 52 57
32 53 125
32 54 125
32 55 76
32 56 49
32 57 10
32 58 102
32 59 9
32 60 183
32 61 119
32 62 135
32 63 105
32 64 77
32 65 154
32 66 16
32 67 148
32 68 31
32 69 11
32 70 40
33 34 82
33 35 35
33 36 133
33 37 93
33 38 42
33 39 44
33 40 88
33 41 78
33 42 200
33 43 66
33 44 70
33 45 65
33 46 197
33 47 40
33 48 64
33 49 121
33 50 123
33 51 206
33 52 120
33 53 24
33 54 49
33 55 14
33 56 97
33 57 21
33 58 176
33 59 189
33 60 130
33 61 121
33 62 190
33 63 30
33 64 16
33 65 28
33 66 60
33 67 75
33 68 133
33 69 160
33 70 150
34 35 139
34 36 204
34 37 194
34 38 69
34 39 96
34 40 118
34 41 180
34 42 138
34 43 42
34 44 180
34 45 156
34 46 50
34 47 208
34 48 202
34 49 85
34 50 4
34 51 24
34 52 146
34 53 145
34 54 72
34 55 100
34 56 174
34 57 139
34 58 74
34 59 128
34 60 73
34 61 91
34 62 204
34 63 73
34 64 14
34 65 28
34 66 120
34 67 34
34 68 200
34 69 13
34 70 63
35 36 65
35 37 64
35 38 69
35 39 176
35 40 29
35 41 80
35 42 148
35 43 20
35 44 153
35 45 43
35 46 180
35 47 65
35 48 207
35 49 129
35 50 165
35 51 84
35 52 101
35 53 29
35 54 87
35 55 204
35 56 175
35 57 178
35 58 132
35 59 41
35 60 97
35 61 179
35 62 96
35 63 140
35 64 7
35 65 109
35 66 192
35 67 185
35 68 102
35 69 52
35 70 61
36 37 8
36 38 57
36 39 30
36 40 32
36 41 88
36 42 166
36 43 72
36 44 40
36 45 103
36 46 68
36 47 61
36 48 204
36 49 169
36 50 145
36 51 67
36 52 42
36 53 32
36 54 70
36 55 16
36 56 103
36 57 38
36 58 4
36 59 60
36 60 196
36 61 141
36 62 162
36 63 158
36 64 46
36 65 136
36 66 156
36 67 69
36 68 126
36 69 177
36 70 42
37 38 156
37 39 50
37 40 161
37 41 146
37 42 63
37 43 25
37 44 1
37 45 76
37 46 61
37 47 119
37 48 87
37 49 135
37 50 178
37 51 187
37 52 7
37 53 107
37 54 158
37 55 2
37 56 12
37 57 98
37 58 91
37 59 65
37 60 1
37 61 180
37 62 140
37 63 187
37 64 9
37 65 13
37 66 102
37 67 0
37 68 84
37 69 53
37 70 171
38 39 101
38 40 25
38 41 14
38 42 13
38 43 156
38 44 123
38 45 104
38 46 42
38 47 146
38 48 167
38 49 106
38 50 118
38 51 33
38 52 78
38 53 92
38 54 55
38 55 175
38 56 141
38 57 207
38 58 3
38 59 63
38 60 89
38 61 33
38 62 111
38 63 198
38 64 90
38 65 189
38 66 81
38 67 7
38 68 202
38 69 7
38 70 159
39 40 28
39 41 154
39 42 164
39 43 134
39 44 190
39 45 114
39 46 93
39 47 75
39 48 117
39 49 40
39 50 20
39 51 136
39 52 65
39 53 49
39 54 25
39 55 177
39 56 145
39 57 89
39 58 119
39 59 37
39 60 64
39 61 185
39 62 147
39 63 8
39 64 175
39 65 3
39 66 142
39 67 1
39 68 26
39 69 107
39 70 127
40 41 142
40 42 173
40 43 50
40 44 145
40 45 167
40 46 117
40 47 70
40 48 135
40 49 172
40 50 71
40 51 19
40 52 91
40 53 5
40 54 112
40 55 67
40 56 54
40 57 71
40 58 109
40 59 178
40 60 175
40 61 169
40 62 129
40 63 208
40 64 2
40 65 37
40 66 74
40 67 55
40 68 128
40 69 56
40 70 160
41 42 149
41 43 81
41 44 115
41 45 75
41 46 137
41 47 45
41 48 124
41 49 19
41 50 2
41 51 26
41 52 202
41 53 39
41 54 150
41 55 94
41 56 95
41 57 164
41 58 87
41 59 203
41 60 172
41 61 199
41 62 185
41 63 83
41 64 105
41 65 38
41 66 174
41 67 144
41 68 96
41 69 68
41 70 78
42 43 200
42 44 122
42 45 152
42 46 17
42 47 29
42 48 163
42 49 148
42 50 197
42 51 119
42 52 133
42 53 53
42 54 29
42 55 87
42 56 50
42 57 166
42 58 104
42 59 136
42 60 25
42 61 45
42 62 115
42 63 76
42 64 180
42 65 189
42 66 201
42 67 13
42 68 185
42 69 85
42 70 28
43 44 69
43 45 118
43 46 190
43 47 1
43 48 36
43 49 146
43 50 19
43 51 7
43 52 4
43 53 115
43 54 141
43 55 110
43 56 8
43 57 48
43 58 60
43 59 3
43 60 19
43 61 9
43 62 44
43 63 21
43 64 96
43 65 111
43 66 143
43 67 150
43 68 201
43 69 66
43 70 85
44 45 58
44 46 145
44 47 184
44 48 152
44 49 189
44 50 156
44 51 86
44 52 71
44 53 44
44 54 144
44 55 4
44 56 151
44 57 195
44 58 166
44 59 163
44 60 178
44 61 179
44 62 133
44 63 116
44 64 59
44 65 36
44 66 204
44 67 95
44 68 127
44 69 114
44 70 18
45 46 139
45 47 124
45 48 150
45 49 58
45 50 116
45 51 140
45 52 163
45 53 189
45 54 164
45 55 193
45 56 112
45 57 148
45 58 135
45 59 121
45 60 201
45 61 80
45 62 108
45 63 186
45 64 124
45 65 18
45 66 170
45 67 184
45 68 112
45 69 92
45 70 36
46 47 5
46 48 199
46 49 66
46 50 79
46 51 208
46 52 2
46 53 72
46 54 3
46 55 103
46 56 46
46 57 7
46 58 31
46 59 122
46 60 101
46 61 48
46 62 184
46 63 122
46 64 77
46 65 70
46 66 117
46 67 177
46 68 2
46 69 148
46 70 163
47 48 93
47 49 42
47 50 201
47 51 73
47 52 172
47 53 190
47 54 197
47 55 10
47 56 131
47 57 15
47 58 2
47 59 126
47 60 172
47 61 38
47 62 41
47 63 48
47 64 103
47 65 198
47 66 99
47 67 117
47 68 80
47 69 124
47 70 143
48 49 169
48 50 4
48 51 1
48 52 99
48 53 79
48 54 46
48 55 89
48 56 5
48 57 183
48 58 52
48 59 100
48 60 38
48 61 74
48 62 161
48 63 165
48 64 191
48 65 207
48 66 106
48 67 76
48 68 49
48 69 194
48 70 59
49 50 59
49 51 149
49 52 198
49 53 67
49 54 88
49 55 66
49 56 194
49 57 197
49 58 67
49 59 78
49 60 102
49 61 15
49 62 75
49 63 30
49 64 38
49 65 105
49 66 53
49 67 200
49 68 42
49 69 197
49 70 4
50 51 170
50 52 92
50 53 82
50 54 181
50 55 126
50 56 37
50 57 207
50 58 121
50 59 190
50 60 75
50 61 111
50 62 165
50 63 133
50 64 200
50 65 206
50 66 56
50 67 149
50 68 23
50 69 127
50 70 97
51 52 100
51 53 23
51 54 77
51 55 123
51 56 111
51 57 100
51 58 67
51 59 168
51 60 123
51 61 161
51 62 119
51 63 76
51 64 189
51 65 160
51 66 175
51 67 152
51 68 83
51 69 136
51 70 9
52 53 42
52 54 148
52 55 169
52 56 20
52 57 73
52 58 34
52 59 96
52 60 208
52 61 19
52 62 6
52 63 120
52 64 134
52 65 97
52 66 13
52 67 109
52 68 199
52 69 125
52 70 69
53 54 25
53 55 161
53 56 23
53 57 52
53 58 97
53 59 208
53 60 29
53 61 58
53 62 137
53 63 201
53 64 122
53 65 10
53 66 1
53 67 34
53 68 103
53 69 182
53 70 145
54 55 36
54 56 155
54 57 81
54 58 37
54 59 50
54 60 97
54 61 87
54 62 204
54 63 113
54 64 74
54 65 112
54 66 120
54 67 183
54 68 58
54 69 31
54 70 53
55 56 164
55 57 39
55 58 82
55 59 50
55 60 133
55 61 171
55 62 43
55 63 19
55 64 132
55 65 72
55 66 126
55 67 127
55 68 116
55 69 36
55 70 60
56 57 105
56 58 6
56 59 163
56 60 174
56 61 201
56 62 86
56 63 143
56 64 158
56 65 100
56 66 207
56 67 201
56 68 159
56 69 127
56 70 13
57 58 91
57 59 61
57 60 33
57 61 117
57 62 179
57 63 197
57 64 27
57 65 16
57 66 55
57 67 18
57 68 148
57 69 208
57 70 47
58 59 39
58 60 14
58 61 149
58 62 200
58 63 165
58 64 141
58 65 178
58 66 72
58 67 55
58 68 29
58 69 21
58 70 153
59 60 6
59 61 148
59 62 175
59 63 160
59 64 27
59 65 105
59 66 105
59 67 55
59 68 126
59 69 74
59 70 141
60 61 32
60 62 27
60 63 187
60 64 181
60 65 55
60 66 161
60 67 10
60 68 41
60 69 12
60 70 53
61 62 159
61 63 114
61 64 165
61 65 105
61 66 200
61 67 119
61 68 36
61 69 207
61 70 78
62 63 195
62 64 130
62 65 106
62 66 74
62 67 142
62 68 104
62 69 94
62 70 151
63 64 160
63 65 29
63 66 142
63 67 51
63 68 12
63 69 165
63 70 79
64 65 79
64 66 77
64 67 111
64 68 42
64 69 187
64 70 5
65 66 208
65 67 38
65 68 58
65 69 28
65 70 113
66 67 50
66 68 206
66 69 173
66 70 16
67 68 158
67 69 34
67 70 72
68 69 28
68 70 89
69 70 42
